Maximize

x_0_0 + x_0_1 + x_0_2 + x_1_0 + x_1_1 + x_1_2 + x_2_0 + x_2_1 + x_2_2 + x_3_0 + x_3_1 + x_3_2 + x_4_0 + x_4_1 + x_4_2 + x_5_0 + x_5_1 + x_5_2


Subject To

a0: x_0_0 + x_0_1 + x_0_2 <= 1
a1: x_1_0 + x_1_1 + x_1_2 <= 1
a2: x_2_0 + x_2_1 + x_2_2 <= 1
a3: x_3_0 + x_3_1 + x_3_2 <= 1
a4: x_4_0 + x_4_1 + x_4_2 <= 1
a5: x_5_0 + x_5_1 + x_5_2 <= 1
b0: 4 x_0_0 + 2 x_1_0 + 3 x_2_0 + 1 x_3_0 + 6 x_4_0 + 2 x_5_0 <= 3
b1: 4 x_0_1 + 2 x_1_1 + 3 x_2_1 + 1 x_3_1 + 6 x_4_1 + 2 x_5_1 <= 4
b2: 4 x_0_2 + 2 x_1_2 + 3 x_2_2 + 1 x_3_2 + 6 x_4_2 + 2 x_5_2 <= 5
c0: 0 x_0_0 + x_0_0 <= 1.9
c1: 1 x_0_0 + x_1_0 <= 1.9
c2: 0 x_0_0 + x_2_0 <= 1.9
c3: 1 x_0_0 + x_3_0 <= 1.9
c4: 1 x_0_0 + x_4_0 <= 1.9
c5: 0 x_0_0 + x_5_0 <= 1.9
c6: 0 x_0_1 + x_0_1 <= 1.9
c7: 1 x_0_1 + x_1_1 <= 1.9
c8: 0 x_0_1 + x_2_1 <= 1.9
c9: 1 x_0_1 + x_3_1 <= 1.9
c10: 1 x_0_1 + x_4_1 <= 1.9
c11: 0 x_0_1 + x_5_1 <= 1.9
c12: 0 x_0_2 + x_0_2 <= 1.9
c13: 1 x_0_2 + x_1_2 <= 1.9
c14: 0 x_0_2 + x_2_2 <= 1.9
c15: 1 x_0_2 + x_3_2 <= 1.9
c16: 1 x_0_2 + x_4_2 <= 1.9
c17: 0 x_0_2 + x_5_2 <= 1.9
c18: 1 x_1_0 + x_0_0 <= 1.9
c19: 0 x_1_0 + x_1_0 <= 1.9
c20: 0 x_1_0 + x_2_0 <= 1.9
c21: 1 x_1_0 + x_3_0 <= 1.9
c22: 0 x_1_0 + x_4_0 <= 1.9
c23: 1 x_1_0 + x_5_0 <= 1.9
c24: 1 x_1_1 + x_0_1 <= 1.9
c25: 0 x_1_1 + x_1_1 <= 1.9
c26: 0 x_1_1 + x_2_1 <= 1.9
c27: 1 x_1_1 + x_3_1 <= 1.9
c28: 0 x_1_1 + x_4_1 <= 1.9
c29: 1 x_1_1 + x_5_1 <= 1.9
c30: 1 x_1_2 + x_0_2 <= 1.9
c31: 0 x_1_2 + x_1_2 <= 1.9
c32: 0 x_1_2 + x_2_2 <= 1.9
c33: 1 x_1_2 + x_3_2 <= 1.9
c34: 0 x_1_2 + x_4_2 <= 1.9
c35: 1 x_1_2 + x_5_2 <= 1.9
c36: 0 x_2_0 + x_0_0 <= 1.9
c37: 0 x_2_0 + x_1_0 <= 1.9
c38: 0 x_2_0 + x_2_0 <= 1.9
c39: 1 x_2_0 + x_3_0 <= 1.9
c40: 0 x_2_0 + x_4_0 <= 1.9
c41: 1 x_2_0 + x_5_0 <= 1.9
c42: 0 x_2_1 + x_0_1 <= 1.9
c43: 0 x_2_1 + x_1_1 <= 1.9
c44: 0 x_2_1 + x_2_1 <= 1.9
c45: 1 x_2_1 + x_3_1 <= 1.9
c46: 0 x_2_1 + x_4_1 <= 1.9
c47: 1 x_2_1 + x_5_1 <= 1.9
c48: 0 x_2_2 + x_0_2 <= 1.9
c49: 0 x_2_2 + x_1_2 <= 1.9
c50: 0 x_2_2 + x_2_2 <= 1.9
c51: 1 x_2_2 + x_3_2 <= 1.9
c52: 0 x_2_2 + x_4_2 <= 1.9
c53: 1 x_2_2 + x_5_2 <= 1.9
c54: 1 x_3_0 + x_0_0 <= 1.9
c55: 1 x_3_0 + x_1_0 <= 1.9
c56: 1 x_3_0 + x_2_0 <= 1.9
c57: 0 x_3_0 + x_3_0 <= 1.9
c58: 1 x_3_0 + x_4_0 <= 1.9
c59: 0 x_3_0 + x_5_0 <= 1.9
c60: 1 x_3_1 + x_0_1 <= 1.9
c61: 1 x_3_1 + x_1_1 <= 1.9
c62: 1 x_3_1 + x_2_1 <= 1.9
c63: 0 x_3_1 + x_3_1 <= 1.9
c64: 1 x_3_1 + x_4_1 <= 1.9
c65: 0 x_3_1 + x_5_1 <= 1.9
c66: 1 x_3_2 + x_0_2 <= 1.9
c67: 1 x_3_2 + x_1_2 <= 1.9
c68: 1 x_3_2 + x_2_2 <= 1.9
c69: 0 x_3_2 + x_3_2 <= 1.9
c70: 1 x_3_2 + x_4_2 <= 1.9
c71: 0 x_3_2 + x_5_2 <= 1.9
c72: 1 x_4_0 + x_0_0 <= 1.9
c73: 0 x_4_0 + x_1_0 <= 1.9
c74: 0 x_4_0 + x_2_0 <= 1.9
c75: 1 x_4_0 + x_3_0 <= 1.9
c76: 0 x_4_0 + x_4_0 <= 1.9
c77: 1 x_4_0 + x_5_0 <= 1.9
c78: 1 x_4_1 + x_0_1 <= 1.9
c79: 0 x_4_1 + x_1_1 <= 1.9
c80: 0 x_4_1 + x_2_1 <= 1.9
c81: 1 x_4_1 + x_3_1 <= 1.9
c82: 0 x_4_1 + x_4_1 <= 1.9
c83: 1 x_4_1 + x_5_1 <= 1.9
c84: 1 x_4_2 + x_0_2 <= 1.9
c85: 0 x_4_2 + x_1_2 <= 1.9
c86: 0 x_4_2 + x_2_2 <= 1.9
c87: 1 x_4_2 + x_3_2 <= 1.9
c88: 0 x_4_2 + x_4_2 <= 1.9
c89: 1 x_4_2 + x_5_2 <= 1.9
c90: 0 x_5_0 + x_0_0 <= 1.9
c91: 1 x_5_0 + x_1_0 <= 1.9
c92: 1 x_5_0 + x_2_0 <= 1.9
c93: 0 x_5_0 + x_3_0 <= 1.9
c94: 1 x_5_0 + x_4_0 <= 1.9
c95: 0 x_5_0 + x_5_0 <= 1.9
c96: 0 x_5_1 + x_0_1 <= 1.9
c97: 1 x_5_1 + x_1_1 <= 1.9
c98: 1 x_5_1 + x_2_1 <= 1.9
c99: 0 x_5_1 + x_3_1 <= 1.9
c100: 1 x_5_1 + x_4_1 <= 1.9
c101: 0 x_5_1 + x_5_1 <= 1.9
c102: 0 x_5_2 + x_0_2 <= 1.9
c103: 1 x_5_2 + x_1_2 <= 1.9
c104: 1 x_5_2 + x_2_2 <= 1.9
c105: 0 x_5_2 + x_3_2 <= 1.9
c106: 1 x_5_2 + x_4_2 <= 1.9
c107: 0 x_5_2 + x_5_2 <= 1.9




Binary

x_0_0 x_0_1 x_0_2 x_1_0 x_1_1 x_1_2 x_2_0 x_2_1 x_2_2 x_3_0 x_3_1 x_3_2 x_4_0 x_4_1 x_4_2 x_5_0 x_5_1 x_5_2

 


End
